1763
7480
7896
7421
4303
898
2751
8762
4082
696
10124
7390
3786
8580
3036
4346
3174
5455
3818
3363
1495
5143
6991
2649
4833
9541
2573
4072
7940
8863
3779
5079
4116
9399
8946
4175
6900
9025
5460
3136
701
2472
8139
9030
1841
7533
2251
5181
8700
8237
4624
